logs/drand/ip/drand-05-075-0.lp
\ LP format - for model browsing. Use MPS format to capture full model detail.
Minimize
  z0 + z1 + z2 + z3 + z4 + z5
Subject To
 R0: x0,1_3 + x0,1_29 + x0,1_32 + x0,1_49 + x0,1_62 - z1 <= 0
 R1: x0,2_3 + x0,2_29 + x0,2_32 + x0,2_49 + x0,2_62 - z2 <= 0
 R2: x0,3_3 + x0,3_29 + x0,3_32 + x0,3_49 + x0,3_62 - z3 <= 0
 R3: x0,4_3 + x0,4_29 + x0,4_32 + x0,4_49 + x0,4_62 - z4 <= 0
 R4: x0,5_3 + x0,5_29 + x0,5_32 + x0,5_49 + x0,5_62 - z5 <= 0
 R5: x1,2_3 + x1,2_29 + x1,2_32 + x1,2_49 + x1,2_62 - z2 <= 0
 R6: x1,3_3 + x1,3_29 + x1,3_32 + x1,3_49 + x1,3_62 - z3 <= 0
 R7: x1,4_3 + x1,4_29 + x1,4_32 + x1,4_49 + x1,4_62 - z4 <= 0
 R8: x1,5_3 + x1,5_29 + x1,5_32 + x1,5_49 + x1,5_62 - z5 <= 0
 R9: x2,3_3 + x2,3_29 + x2,3_32 + x2,3_49 + x2,3_62 - z3 <= 0
 R10: x2,4_3 + x2,4_29 + x2,4_32 + x2,4_49 + x2,4_62 - z4 <= 0
 R11: x2,5_3 + x2,5_29 + x2,5_32 + x2,5_49 + x2,5_62 - z5 <= 0
 R12: x3,4_3 + x3,4_29 + x3,4_32 + x3,4_49 + x3,4_62 - z4 <= 0
 R13: x3,5_3 + x3,5_29 + x3,5_32 + x3,5_49 + x3,5_62 - z5 <= 0
 R14: x4,5_3 + x4,5_29 + x4,5_32 + x4,5_49 + x4,5_62 - z5 <= 0
 R15: x0,1_3 + x0,2_3 + x0,3_3 + x0,4_3 + x0,5_3 + x1,2_3 + x1,3_3 + x1,4_3
   + x1,5_3 + x2,3_3 + x2,4_3 + x2,5_3 + x3,4_3 + x3,5_3 + x4,5_3 = 1
 R16: x0,1_29 + x0,2_29 + x0,3_29 + x0,4_29 + x0,5_29 + x1,2_29 + x1,3_29
   + x1,4_29 + x1,5_29 + x2,3_29 + x2,4_29 + x2,5_29 + x3,4_29 + x3,5_29
   + x4,5_29 = 1
 R17: x0,1_32 + x0,2_32 + x0,3_32 + x0,4_32 + x0,5_32 + x1,2_32 + x1,3_32
   + x1,4_32 + x1,5_32 + x2,3_32 + x2,4_32 + x2,5_32 + x3,4_32 + x3,5_32
   + x4,5_32 = 1
 R18: x0,1_49 + x0,2_49 + x0,3_49 + x0,4_49 + x0,5_49 + x1,2_49 + x1,3_49
   + x1,4_49 + x1,5_49 + x2,3_49 + x2,4_49 + x2,5_49 + x3,4_49 + x3,5_49
   + x4,5_49 = 1
 R19: x0,1_62 + x0,2_62 + x0,3_62 + x0,4_62 + x0,5_62 + x1,2_62 + x1,3_62
   + x1,4_62 + x1,5_62 + x2,3_62 + x2,4_62 + x2,5_62 + x3,4_62 + x3,5_62
   + x4,5_62 = 1
 R20: p0 - p1 <= -1
 R21: - 3 x0,1_3 - p0 + p1 >= 0
 R22: 175 x0,1_3 - p0 + p1 <= 178
 R23: - 29 x0,1_29 - p0 + p1 >= 0
 R24: 175 x0,1_29 - p0 + p1 <= 204
 R25: - 32 x0,1_32 - p0 + p1 >= 0
 R26: 175 x0,1_32 - p0 + p1 <= 207
 R27: - 49 x0,1_49 - p0 + p1 >= 0
 R28: 175 x0,1_49 - p0 + p1 <= 224
 R29: - 62 x0,1_62 - p0 + p1 >= 0
 R30: 175 x0,1_62 - p0 + p1 <= 237
 R31: p0 - p2 <= -1
 R32: - 3 x0,2_3 - p0 + p2 >= 0
 R33: 175 x0,2_3 - p0 + p2 <= 178
 R34: - 29 x0,2_29 - p0 + p2 >= 0
 R35: 175 x0,2_29 - p0 + p2 <= 204
 R36: - 32 x0,2_32 - p0 + p2 >= 0
 R37: 175 x0,2_32 - p0 + p2 <= 207
 R38: - 49 x0,2_49 - p0 + p2 >= 0
 R39: 175 x0,2_49 - p0 + p2 <= 224
 R40: - 62 x0,2_62 - p0 + p2 >= 0
 R41: 175 x0,2_62 - p0 + p2 <= 237
 R42: p0 - p3 <= -1
 R43: - 3 x0,3_3 - p0 + p3 >= 0
 R44: 175 x0,3_3 - p0 + p3 <= 178
 R45: - 29 x0,3_29 - p0 + p3 >= 0
 R46: 175 x0,3_29 - p0 + p3 <= 204
 R47: - 32 x0,3_32 - p0 + p3 >= 0
 R48: 175 x0,3_32 - p0 + p3 <= 207
 R49: - 49 x0,3_49 - p0 + p3 >= 0
 R50: 175 x0,3_49 - p0 + p3 <= 224
 R51: - 62 x0,3_62 - p0 + p3 >= 0
 R52: 175 x0,3_62 - p0 + p3 <= 237
 R53: p0 - p4 <= -1
 R54: - 3 x0,4_3 - p0 + p4 >= 0
 R55: 175 x0,4_3 - p0 + p4 <= 178
 R56: - 29 x0,4_29 - p0 + p4 >= 0
 R57: 175 x0,4_29 - p0 + p4 <= 204
 R58: - 32 x0,4_32 - p0 + p4 >= 0
 R59: 175 x0,4_32 - p0 + p4 <= 207
 R60: - 49 x0,4_49 - p0 + p4 >= 0
 R61: 175 x0,4_49 - p0 + p4 <= 224
 R62: - 62 x0,4_62 - p0 + p4 >= 0
 R63: 175 x0,4_62 - p0 + p4 <= 237
 R64: p0 - p5 <= -1
 R65: - 3 x0,5_3 - p0 + p5 >= 0
 R66: 175 x0,5_3 - p0 + p5 <= 178
 R67: - 29 x0,5_29 - p0 + p5 >= 0
 R68: 175 x0,5_29 - p0 + p5 <= 204
 R69: - 32 x0,5_32 - p0 + p5 >= 0
 R70: 175 x0,5_32 - p0 + p5 <= 207
 R71: - 49 x0,5_49 - p0 + p5 >= 0
 R72: 175 x0,5_49 - p0 + p5 <= 224
 R73: - 62 x0,5_62 - p0 + p5 >= 0
 R74: 175 x0,5_62 - p0 + p5 <= 237
 R75: p1 - p2 <= -1
 R76: - 3 x1,2_3 - p1 + p2 >= 0
 R77: 175 x1,2_3 - p1 + p2 <= 178
 R78: - 29 x1,2_29 - p1 + p2 >= 0
 R79: 175 x1,2_29 - p1 + p2 <= 204
 R80: - 32 x1,2_32 - p1 + p2 >= 0
 R81: 175 x1,2_32 - p1 + p2 <= 207
 R82: - 49 x1,2_49 - p1 + p2 >= 0
 R83: 175 x1,2_49 - p1 + p2 <= 224
 R84: - 62 x1,2_62 - p1 + p2 >= 0
 R85: 175 x1,2_62 - p1 + p2 <= 237
 R86: p1 - p3 <= -1
 R87: - 3 x1,3_3 - p1 + p3 >= 0
 R88: 175 x1,3_3 - p1 + p3 <= 178
 R89: - 29 x1,3_29 - p1 + p3 >= 0
 R90: 175 x1,3_29 - p1 + p3 <= 204
 R91: - 32 x1,3_32 - p1 + p3 >= 0
 R92: 175 x1,3_32 - p1 + p3 <= 207
 R93: - 49 x1,3_49 - p1 + p3 >= 0
 R94: 175 x1,3_49 - p1 + p3 <= 224
 R95: - 62 x1,3_62 - p1 + p3 >= 0
 R96: 175 x1,3_62 - p1 + p3 <= 237
 R97: p1 - p4 <= -1
 R98: - 3 x1,4_3 - p1 + p4 >= 0
 R99: 175 x1,4_3 - p1 + p4 <= 178
 R100: - 29 x1,4_29 - p1 + p4 >= 0
 R101: 175 x1,4_29 - p1 + p4 <= 204
 R102: - 32 x1,4_32 - p1 + p4 >= 0
 R103: 175 x1,4_32 - p1 + p4 <= 207
 R104: - 49 x1,4_49 - p1 + p4 >= 0
 R105: 175 x1,4_49 - p1 + p4 <= 224
 R106: - 62 x1,4_62 - p1 + p4 >= 0
 R107: 175 x1,4_62 - p1 + p4 <= 237
 R108: p1 - p5 <= -1
 R109: - 3 x1,5_3 - p1 + p5 >= 0
 R110: 175 x1,5_3 - p1 + p5 <= 178
 R111: - 29 x1,5_29 - p1 + p5 >= 0
 R112: 175 x1,5_29 - p1 + p5 <= 204
 R113: - 32 x1,5_32 - p1 + p5 >= 0
 R114: 175 x1,5_32 - p1 + p5 <= 207
 R115: - 49 x1,5_49 - p1 + p5 >= 0
 R116: 175 x1,5_49 - p1 + p5 <= 224
 R117: - 62 x1,5_62 - p1 + p5 >= 0
 R118: 175 x1,5_62 - p1 + p5 <= 237
 R119: p2 - p3 <= -1
 R120: - 3 x2,3_3 - p2 + p3 >= 0
 R121: 175 x2,3_3 - p2 + p3 <= 178
 R122: - 29 x2,3_29 - p2 + p3 >= 0
 R123: 175 x2,3_29 - p2 + p3 <= 204
 R124: - 32 x2,3_32 - p2 + p3 >= 0
 R125: 175 x2,3_32 - p2 + p3 <= 207
 R126: - 49 x2,3_49 - p2 + p3 >= 0
 R127: 175 x2,3_49 - p2 + p3 <= 224
 R128: - 62 x2,3_62 - p2 + p3 >= 0
 R129: 175 x2,3_62 - p2 + p3 <= 237
 R130: p2 - p4 <= -1
 R131: - 3 x2,4_3 - p2 + p4 >= 0
 R132: 175 x2,4_3 - p2 + p4 <= 178
 R133: - 29 x2,4_29 - p2 + p4 >= 0
 R134: 175 x2,4_29 - p2 + p4 <= 204
 R135: - 32 x2,4_32 - p2 + p4 >= 0
 R136: 175 x2,4_32 - p2 + p4 <= 207
 R137: - 49 x2,4_49 - p2 + p4 >= 0
 R138: 175 x2,4_49 - p2 + p4 <= 224
 R139: - 62 x2,4_62 - p2 + p4 >= 0
 R140: 175 x2,4_62 - p2 + p4 <= 237
 R141: p2 - p5 <= -1
 R142: - 3 x2,5_3 - p2 + p5 >= 0
 R143: 175 x2,5_3 - p2 + p5 <= 178
 R144: - 29 x2,5_29 - p2 + p5 >= 0
 R145: 175 x2,5_29 - p2 + p5 <= 204
 R146: - 32 x2,5_32 - p2 + p5 >= 0
 R147: 175 x2,5_32 - p2 + p5 <= 207
 R148: - 49 x2,5_49 - p2 + p5 >= 0
 R149: 175 x2,5_49 - p2 + p5 <= 224
 R150: - 62 x2,5_62 - p2 + p5 >= 0
 R151: 175 x2,5_62 - p2 + p5 <= 237
 R152: p3 - p4 <= -1
 R153: - 3 x3,4_3 - p3 + p4 >= 0
 R154: 175 x3,4_3 - p3 + p4 <= 178
 R155: - 29 x3,4_29 - p3 + p4 >= 0
 R156: 175 x3,4_29 - p3 + p4 <= 204
 R157: - 32 x3,4_32 - p3 + p4 >= 0
 R158: 175 x3,4_32 - p3 + p4 <= 207
 R159: - 49 x3,4_49 - p3 + p4 >= 0
 R160: 175 x3,4_49 - p3 + p4 <= 224
 R161: - 62 x3,4_62 - p3 + p4 >= 0
 R162: 175 x3,4_62 - p3 + p4 <= 237
 R163: p3 - p5 <= -1
 R164: - 3 x3,5_3 - p3 + p5 >= 0
 R165: 175 x3,5_3 - p3 + p5 <= 178
 R166: - 29 x3,5_29 - p3 + p5 >= 0
 R167: 175 x3,5_29 - p3 + p5 <= 204
 R168: - 32 x3,5_32 - p3 + p5 >= 0
 R169: 175 x3,5_32 - p3 + p5 <= 207
 R170: - 49 x3,5_49 - p3 + p5 >= 0
 R171: 175 x3,5_49 - p3 + p5 <= 224
 R172: - 62 x3,5_62 - p3 + p5 >= 0
 R173: 175 x3,5_62 - p3 + p5 <= 237
 R174: p4 - p5 <= -1
 R175: - 3 x4,5_3 - p4 + p5 >= 0
 R176: 175 x4,5_3 - p4 + p5 <= 178
 R177: - 29 x4,5_29 - p4 + p5 >= 0
 R178: 175 x4,5_29 - p4 + p5 <= 204
 R179: - 32 x4,5_32 - p4 + p5 >= 0
 R180: 175 x4,5_32 - p4 + p5 <= 207
 R181: - 49 x4,5_49 - p4 + p5 >= 0
 R182: 175 x4,5_49 - p4 + p5 <= 224
 R183: - 62 x4,5_62 - p4 + p5 >= 0
 R184: 175 x4,5_62 - p4 + p5 <= 237
 R185: z0 - z1 >= 0
 R186: z1 - z2 >= 0
 R187: z2 - z3 >= 0
 R188: z3 - z4 >= 0
 R189: z4 - z5 >= 0
Bounds
Binaries
 x0,1_3 x0,1_29 x0,1_32 x0,1_49 x0,1_62 x0,2_3 x0,2_29 x0,2_32 x0,2_49
 x0,2_62 x0,3_3 x0,3_29 x0,3_32 x0,3_49 x0,3_62 x0,4_3 x0,4_29 x0,4_32
 x0,4_49 x0,4_62 x0,5_3 x0,5_29 x0,5_32 x0,5_49 x0,5_62 x1,2_3 x1,2_29
 x1,2_32 x1,2_49 x1,2_62 x1,3_3 x1,3_29 x1,3_32 x1,3_49 x1,3_62 x1,4_3
 x1,4_29 x1,4_32 x1,4_49 x1,4_62 x1,5_3 x1,5_29 x1,5_32 x1,5_49 x1,5_62
 x2,3_3 x2,3_29 x2,3_32 x2,3_49 x2,3_62 x2,4_3 x2,4_29 x2,4_32 x2,4_49
 x2,4_62 x2,5_3 x2,5_29 x2,5_32 x2,5_49 x2,5_62 x3,4_3 x3,4_29 x3,4_32
 x3,4_49 x3,4_62 x3,5_3 x3,5_29 x3,5_32 x3,5_49 x3,5_62 x4,5_3 x4,5_29
 x4,5_32 x4,5_49 x4,5_62 z0 z1 z2 z3 z4 z5
Generals
 p0 p1 p2 p3 p4 p5
End
