logs/drand/ip/drand-05-075-0.sol
# Objective value = 5
x0,1_3 1
x0,1_29 0
x0,1_32 0
x0,1_49 0
x0,1_62 0
x0,2_3 0
x0,2_29 0
x0,2_32 1
x0,2_49 0
x0,2_62 0
x0,3_3 0
x0,3_29 0
x0,3_32 0
x0,3_49 0
x0,3_62 0
x0,4_3 0
x0,4_29 0
x0,4_32 0
x0,4_49 0
x0,4_62 0
x0,5_3 0
x0,5_29 0
x0,5_32 0
x0,5_49 0
x0,5_62 0
x1,2_3 0
x1,2_29 1
x1,2_32 0
x1,2_49 0
x1,2_62 0
x1,3_3 0
x1,3_29 0
x1,3_32 0
x1,3_49 0
x1,3_62 0
x1,4_3 0
x1,4_29 0
x1,4_32 0
x1,4_49 0
x1,4_62 0
x1,5_3 0
x1,5_29 0
x1,5_32 0
x1,5_49 0
x1,5_62 0
x2,3_3 0
x2,3_29 0
x2,3_32 0
x2,3_49 0
x2,3_62 0
x2,4_3 0
x2,4_29 0
x2,4_32 0
x2,4_49 0
x2,4_62 1
x2,5_3 0
x2,5_29 0
x2,5_32 0
x2,5_49 0
x2,5_62 0
x3,4_3 0
x3,4_29 0
x3,4_32 0
x3,4_49 1
x3,4_62 0
x3,5_3 0
x3,5_29 0
x3,5_32 0
x3,5_49 0
x3,5_62 0
x4,5_3 0
x4,5_29 0
x4,5_32 0
x4,5_49 0
x4,5_62 0
z0 1
z1 1
z2 1
z3 1
z4 1
z5 0
p0 0
p1 3
p2 32
p3 45
p4 94
p5 95
